Prototype/modified-results/vertexcover1-1/vertex-cover57.dat-s
"Vertex cover tests for graphs with 5 vertices and 1 - 10 edges"
7
1
{6}
1 0 0 0 0 0 2
0 1 1 1 -1.0
0 1 2 2 -1.0
0 1 3 3 -1.0
0 1 4 4 -1.0
0 1 5 5 -1.0
0 1 6 6 -1.0
1 1 1 1 1.0
2 1 1 2 -1.0
2 1 2 2 2.0
3 1 1 3 -1.0
3 1 3 3 2.0
4 1 1 4 -1.0
4 1 4 4 2.0
5 1 1 5 -1.0
5 1 5 5 2.0
6 1 1 6 -1.0
6 1 6 6 2.0
7 1 1 2 1.0
7 1 1 5 1.0
7 1 2 5 -1.0
